
n_res = 6;
rcap = [101, 109, 594, 592, 574, 576];
rtype = [1, 1, 2, 2, 2, 2];
n_tasks = 100;
modes =  [{1, 2, 3}, {4, 5, 6}, {7, 8, 9}, {10, 11, 12}, {13, 14, 15}, {16, 17, 18}, {19, 20, 21}, {22, 23, 24}, {25, 26, 27}, {28, 29, 30}, {31, 32, 33}, {34, 35, 36}, {37, 38, 39}, {40, 41, 42}, {43, 44, 45}, {46, 47, 48}, {49, 50, 51}, {52, 53, 54}, {55, 56, 57}, {58, 59, 60}, {61, 62, 63}, {64, 65, 66}, {67, 68, 69}, {70, 71, 72}, {73, 74, 75}, {76, 77, 78}, {79, 80, 81}, {82, 83, 84}, {85, 86, 87}, {88, 89, 90}, {91, 92, 93}, {94, 95, 96}, {97, 98, 99}, {100, 101, 102}, {103, 104, 105}, {106, 107, 108}, {109, 110, 111}, {112, 113, 114}, {115, 116, 117}, {118, 119, 120}, {121, 122, 123}, {124, 125, 126}, {127, 128, 129}, {130, 131, 132}, {133, 134, 135}, {136, 137, 138}, {139, 140, 141}, {142, 143, 144}, {145, 146, 147}, {148, 149, 150}, {151, 152, 153}, {154, 155, 156}, {157, 158, 159}, {160, 161, 162}, {163, 164, 165}, {166, 167, 168}, {169, 170, 171}, {172, 173, 174}, {175, 176, 177}, {178, 179, 180}, {181, 182, 183}, {184, 185, 186}, {187, 188, 189}, {190, 191, 192}, {193, 194, 195}, {196, 197, 198}, {199, 200, 201}, {202, 203, 204}, {205, 206, 207}, {208, 209, 210}, {211, 212, 213}, {214, 215, 216}, {217, 218, 219}, {220, 221, 222}, {223, 224, 225}, {226, 227, 228}, {229, 230, 231}, {232, 233, 234}, {235, 236, 237}, {238, 239, 240}, {241, 242, 243}, {244, 245, 246}, {247, 248, 249}, {250, 251, 252}, {253, 254, 255}, {256, 257, 258}, {259, 260, 261}, {262, 263, 264}, {265, 266, 267}, {268, 269, 270}, {271, 272, 273}, {274, 275, 276}, {277, 278, 279}, {280, 281, 282}, {283, 284, 285}, {286, 287, 288}, {289, 290, 291}, {292, 293, 294}, {295, 296, 297}, {298, 299, 300}];
succ =  [{100, 99, 75, 72, 70, 69, 68, 63, 62, 57, 56, 48, 43, 42, 33, 30, 24}, {100, 73, 72, 70, 68, 65, 58, 57, 53, 52, 49, 48, 46, 33, 32, 28}, {99, 96, 94, 93, 75, 74, 72, 70, 66, 65, 61, 57, 56, 55, 54, 52, 47, 46, 43, 41, 33}, {100, 72, 70, 68, 62, 60, 58, 57, 50, 48, 46, 42, 41, 26, 24}, {100, 99, 98, 97, 94, 91, 88, 75, 72, 71, 70, 65, 61, 60, 57, 56, 55, 52, 50, 46, 41, 39}, {99, 98, 97, 95, 91, 75, 72, 68, 67, 66, 65, 64, 62, 56, 54, 49, 48, 46, 43, 41, 26}, {97, 96, 72, 65, 63, 62, 60, 57, 52, 47, 46, 41, 28}, {99, 98, 97, 75, 68, 60, 48, 46, 44, 41, 39, 36, 35, 26}, {96, 92, 73, 69, 65, 59, 56, 52, 47, 33, 28}, {100, 98, 97, 93, 73, 72, 68, 67, 66, 65, 57, 49, 46, 41, 40}, {100, 99, 98, 97, 93, 90, 88, 84, 72, 70, 68, 67, 65, 60, 58, 56, 54, 53, 50, 45}, {99, 96, 93, 90, 87, 74, 72, 67, 66, 63, 58, 57, 47, 33}, {99, 97, 91, 88, 72, 70, 69, 68, 60, 56, 43, 42, 30}, {100, 95, 91, 90, 88, 71, 70, 68, 67, 66, 65, 61, 60, 58, 56, 55, 54, 53, 46}, {100, 99, 98, 97, 94, 91, 74, 72, 71, 68, 66, 65, 48, 30}, {100, 98, 95, 88, 87, 84, 72, 70, 68, 67, 65, 56, 54, 53, 43, 33}, {96, 95, 94, 92, 74, 72, 69, 67, 65, 61, 59, 55, 54, 33}, {99, 95, 93, 91, 89, 87, 83, 74, 70, 65, 58, 52, 47, 43}, {99, 98, 97, 91, 87, 75, 68, 59, 58, 56, 50, 48, 35}, {98, 93, 92, 84, 71, 70, 65, 50, 48, 41, 33}, {97, 96, 94, 91, 89, 85, 82, 71, 68, 67, 56, 49, 43, 41}, {98, 92, 88, 84, 82, 73, 71, 70, 68, 65, 53, 46, 42}, {99, 95, 86, 82, 81, 69, 68, 65, 60, 54, 53, 44}, {98, 95, 91, 90, 86, 85, 83, 82, 71, 67, 65, 61, 49}, {95, 92, 87, 70, 69, 67, 53, 33}, {94, 93, 89, 88, 82, 81, 73, 71, 69, 55, 53}, {98, 97, 93, 92, 91, 88, 85, 84, 81, 79, 77, 70, 68, 65, 56}, {99, 98, 95, 93, 91, 80, 78, 71, 66, 55, 54}, {98, 94, 92, 91, 90, 88, 87, 83, 81, 54, 46}, {96, 93, 92, 84, 82, 78, 67, 54, 41}, {96, 95, 90, 89, 88, 86, 81, 79, 78, 55, 53}, {96, 93, 90, 88, 86, 85, 81, 80, 77, 76, 74, 66}, {97, 91, 86, 85, 83, 82, 81, 80, 77, 60}, {93, 87, 86, 83, 82, 80, 70, 65, 60}, {94, 92, 90, 86, 84, 83, 80, 76, 69, 67}, {92, 90, 89, 87, 83, 81, 80, 78, 71, 70}, {99, 94, 92, 89, 85, 80, 78, 76, 67}, {100, 85, 84, 81, 80, 77, 76, 66}, {93, 90, 84, 66, 54}, {94, 91, 90, 88, 82, 80, 79, 78, 77}, {90, 87, 81, 79, 53}, {95, 90, 89, 86, 83, 76, 67}, {92, 90, 81, 79, 78, 76}, {92, 91, 84, 80, 79, 78}, {91, 89, 87, 83, 82, 79}, {89, 86, 85, 77, 69}, {100, 88, 84, 81, 68}, {96, 88, 82, 77, 76}, {88, 87, 84, 77, 76}, {96, 79, 78, 77, 76}, {98, 82, 79, 78, 76}, {85, 78, 76, 67}, {83, 80, 77, 76}, {85, 79, 77, 76}, {87, 84, 83, 77}, {86, 80, 78, 76}, {95, 92, 78, 77}, {94, 86, 82, 77}, {93, 88, 86, 77}, {89, 79, 76}, {81, 80, 76}, {94, 93, 77}, {84, 78, 76}, {84, 82, 79}, {78, 76}, {82, 79}, {81}, {80}, {78}, {76}, {79}, {82}, {85}, {78}, {77}, {}, {}, {}, {}, {}, {}, {}, {}, {}, {}, {}, {}, {}, {}, {}, {}, {}, {}, {}, {}, {}, {}, {}, {}, {}];
n_opt = 300;
dur = [4, 5, 6, 1, 4, 8, 2, 3, 9, 1, 5, 8, 1, 4, 8, 2, 3, 6, 3, 4, 8, 4, 5, 10, 4, 5, 6, 3, 7, 9, 4, 8, 10, 2, 3, 8, 2, 8, 9, 4, 8, 10, 3, 8, 10, 5, 6, 9, 3, 5, 6, 4, 7, 8, 2, 3, 5, 7, 8, 9, 4, 7, 8, 4, 9, 10, 1, 5, 6, 2, 3, 7, 2, 3, 8, 1, 2, 5, 1, 4, 5, 1, 5, 8, 1, 7, 9, 5, 6, 7, 1, 3, 6, 1, 2, 6, 3, 5, 9, 2, 5, 10, 7, 9, 10, 3, 7, 8, 1, 6, 10, 5, 8, 9, 2, 3, 4, 4, 9, 10, 1, 4, 8, 3, 9, 10, 1, 2, 7, 4, 9, 10, 2, 5, 7, 1, 6, 7, 1, 5, 6, 5, 7, 9, 1, 2, 9, 4, 5, 7, 3, 4, 5, 2, 5, 8, 6, 7, 8, 2, 7, 8, 5, 6, 10, 8, 9, 10, 4, 7, 9, 3, 5, 6, 4, 6, 8, 6, 8, 9, 2, 8, 10, 5, 7, 10, 1, 2, 9, 3, 6, 9, 6, 7, 9, 2, 3, 10, 2, 3, 9, 1, 6, 10, 1, 5, 9, 2, 4, 6, 4, 5, 7, 6, 7, 9, 1, 9, 10, 6, 9, 10, 2, 4, 8, 1, 2, 7, 4, 5, 9, 2, 5, 10, 4, 5, 9, 2, 8, 10, 2, 5, 10, 3, 5, 10, 4, 6, 8, 8, 9, 10, 5, 6, 8, 5, 6, 9, 2, 3, 7, 2, 5, 10, 1, 2, 4, 1, 6, 7, 4, 8, 10, 2, 3, 4, 1, 5, 10, 1, 9, 10, 1, 4, 9, 3, 6, 7, 5, 6, 7, 1, 6, 7, 1, 4, 5, 2, 6, 7];
rreq = [|6, 4, 4, 7, 7, 6, 6, 6, 6, 6, 6, 2, 8, 7, 6, 4, 4, 4, 2, 2, 1, 9, 7, 7, 3, 2, 2, 8, 6, 6, 9, 6, 5, 8, 8, 8, 3, 3, 3, 5, 5, 5, 4, 4, 3, 7, 5, 5, 3, 2, 2, 1, 1, 1, 4, 4, 2, 9, 8, 8, 5, 5, 5, 5, 4, 3, 8, 6, 6, 4, 3, 2, 9, 8, 4, 7, 4, 2, 7, 5, 2, 1, 1, 1, 9, 9, 8, 5, 5, 5, 8, 7, 3, 2, 2, 2, 10, 9, 8, 8, 5, 1, 4, 3, 3, 5, 5, 4, 9, 9, 9, 4, 4, 2, 7, 5, 5, 7, 5, 3, 5, 4, 3, 8, 8, 8, 5, 3, 1, 9, 8, 7, 8, 7, 7, 7, 5, 3, 9, 6, 4, 8, 4, 1, 9, 8, 8, 2, 1, 1, 9, 8, 7, 8, 6, 4, 8, 6, 4, 10, 8, 7, 8, 4, 4, 9, 5, 4, 4, 2, 2, 9, 8, 8, 9, 5, 5, 7, 6, 5, 6, 4, 2, 4, 4, 1, 5, 4, 3, 1, 1, 1, 5, 3, 3, 7, 7, 3, 8, 8, 8, 10, 7, 4, 2, 1, 1, 9, 9, 8, 3, 2, 1, 9, 8, 7, 6, 3, 3, 5, 3, 1, 7, 6, 5, 5, 4, 2, 6, 5, 3, 6, 5, 4, 8, 8, 8, 6, 4, 3, 7, 6, 4, 8, 3, 2, 5, 5, 5, 7, 5, 3, 4, 4, 3, 4, 3, 3, 5, 4, 2, 2, 2, 2, 5, 4, 4, 8, 5, 1, 2, 1, 1, 8, 7, 4, 6, 4, 2, 2, 2, 2, 3, 2, 1, 8, 6, 6, 8, 5, 4, 7, 6, 6, 4, 3, 1, 9, 8, 8
 |2, 2, 2, 9, 7, 7, 10, 9, 8, 4, 3, 2, 7, 4, 1, 8, 6, 6, 6, 5, 4, 6, 6, 5, 6, 5, 3, 5, 5, 5, 5, 5, 4, 6, 5, 3, 2, 2, 2, 8, 7, 7, 2, 2, 2, 7, 6, 3, 10, 8, 6, 7, 7, 3, 7, 5, 1, 8, 6, 3, 6, 5, 5, 8, 8, 4, 10, 9, 8, 9, 7, 5, 8, 8, 5, 3, 2, 1, 10, 7, 4, 9, 8, 6, 8, 3, 1, 8, 4, 3, 10, 7, 6, 6, 6, 5, 9, 5, 4, 5, 3, 3, 6, 5, 5, 6, 5, 4, 8, 5, 3, 6, 5, 3, 5, 5, 4, 3, 2, 1, 4, 3, 1, 7, 5, 4, 7, 3, 2, 9, 8, 6, 8, 7, 7, 6, 5, 4, 4, 3, 3, 9, 9, 8, 3, 3, 3, 3, 3, 3, 4, 3, 3, 8, 8, 8, 8, 7, 7, 4, 2, 1, 9, 9, 7, 4, 4, 3, 6, 5, 5, 5, 4, 3, 9, 7, 6, 8, 8, 8, 8, 8, 4, 1, 1, 1, 8, 6, 5, 8, 7, 6, 10, 9, 9, 4, 4, 4, 5, 2, 1, 7, 6, 5, 5, 4, 4, 5, 4, 2, 9, 7, 4, 7, 6, 5, 8, 7, 6, 10, 9, 9, 3, 2, 2, 4, 4, 4, 8, 7, 6, 10, 9, 8, 7, 4, 3, 4, 4, 4, 7, 7, 7, 9, 5, 3, 8, 7, 5, 5, 5, 5, 8, 8, 8, 4, 4, 2, 2, 1, 1, 10, 4, 4, 7, 7, 7, 6, 6, 6, 7, 5, 2, 9, 7, 6, 9, 6, 6, 3, 3, 3, 6, 4, 4, 7, 6, 5, 10, 9, 9, 6, 5, 4, 4, 3, 2, 8, 3, 2
 |4, 2, 2, 7, 7, 6, 5, 5, 5, 10, 9, 9, 8, 5, 4, 7, 7, 5, 6, 5, 5, 3, 2, 2, 3, 2, 2, 2, 2, 2, 6, 5, 2, 8, 3, 2, 5, 5, 3, 1, 1, 1, 6, 5, 4, 9, 6, 2, 6, 4, 4, 10, 6, 4, 8, 7, 7, 7, 4, 1, 6, 5, 4, 7, 7, 7, 6, 4, 2, 9, 7, 6, 8, 6, 3, 8, 6, 5, 5, 4, 4, 6, 5, 4, 10, 4, 1, 10, 7, 6, 3, 2, 2, 7, 7, 7, 8, 7, 7, 8, 7, 7, 3, 2, 2, 5, 4, 3, 9, 9, 8, 9, 5, 3, 8, 5, 4, 6, 5, 5, 5, 5, 4, 8, 6, 4, 5, 3, 2, 8, 4, 4, 10, 7, 3, 5, 5, 5, 5, 4, 1, 10, 6, 6, 7, 5, 4, 3, 2, 2, 7, 7, 6, 9, 9, 7, 6, 5, 5, 6, 6, 6, 5, 4, 3, 5, 3, 3, 6, 6, 2, 9, 8, 5, 3, 3, 3, 6, 5, 5, 7, 6, 5, 7, 6, 3, 5, 4, 3, 9, 8, 8, 5, 3, 3, 5, 5, 5, 8, 6, 5, 4, 2, 2, 7, 5, 4, 9, 7, 7, 3, 2, 2, 5, 5, 4, 8, 7, 7, 10, 8, 6, 4, 3, 3, 6, 6, 4, 7, 6, 4, 2, 2, 2, 7, 6, 6, 9, 7, 6, 6, 3, 1, 7, 5, 2, 6, 6, 2, 9, 8, 8, 9, 4, 4, 6, 4, 1, 9, 8, 8, 10, 10, 10, 3, 3, 3, 4, 2, 1, 7, 7, 7, 5, 4, 3, 7, 5, 2, 9, 8, 8, 9, 8, 6, 7, 7, 7, 7, 5, 5, 4, 3, 2, 3, 3, 3, 8, 6, 6
 |9, 8, 7, 10, 8, 5, 10, 9, 9, 9, 9, 9, 7, 5, 2, 6, 4, 1, 8, 5, 5, 5, 5, 4, 6, 6, 2, 5, 3, 2, 9, 5, 5, 5, 5, 4, 10, 6, 4, 8, 6, 6, 3, 3, 2, 5, 4, 2, 8, 8, 8, 8, 8, 5, 5, 2, 1, 3, 3, 2, 8, 6, 5, 7, 3, 2, 7, 7, 6, 7, 7, 3, 5, 4, 4, 6, 5, 5, 6, 6, 5, 2, 2, 2, 4, 2, 2, 6, 3, 1, 5, 4, 4, 6, 5, 2, 5, 4, 3, 10, 9, 7, 9, 4, 4, 9, 9, 8, 9, 8, 8, 7, 6, 4, 6, 3, 2, 9, 9, 8, 3, 3, 1, 10, 5, 3, 2, 2, 2, 10, 9, 7, 6, 5, 3, 9, 7, 7, 7, 6, 4, 5, 5, 3, 6, 4, 3, 6, 3, 3, 4, 4, 4, 6, 5, 4, 7, 7, 7, 7, 7, 7, 9, 6, 1, 4, 3, 3, 10, 9, 8, 5, 4, 1, 3, 3, 1, 6, 5, 4, 3, 3, 1, 2, 2, 2, 6, 4, 3, 6, 5, 5, 6, 5, 5, 10, 10, 10, 6, 5, 4, 9, 8, 8, 8, 3, 3, 8, 7, 7, 5, 5, 3, 7, 5, 5, 1, 1, 1, 10, 6, 5, 10, 9, 8, 8, 4, 3, 5, 3, 3, 9, 5, 1, 3, 2, 2, 10, 9, 8, 3, 2, 1, 5, 4, 4, 6, 4, 3, 9, 4, 3, 5, 4, 3, 3, 2, 2, 5, 4, 4, 9, 9, 9, 10, 9, 9, 5, 4, 4, 3, 2, 2, 6, 4, 1, 3, 2, 1, 3, 3, 3, 6, 5, 5, 6, 4, 4, 9, 9, 8, 10, 5, 4, 9, 9, 8, 7, 7, 6
 |5, 4, 2, 5, 3, 1, 4, 4, 2, 7, 6, 4, 10, 7, 6, 7, 4, 3, 7, 7, 7, 8, 8, 6, 9, 5, 2, 10, 5, 1, 3, 3, 2, 5, 3, 2, 8, 7, 6, 1, 1, 1, 5, 2, 1, 7, 7, 7, 8, 8, 8, 7, 6, 6, 5, 3, 3, 10, 10, 10, 8, 6, 3, 8, 5, 5, 8, 6, 3, 3, 2, 1, 10, 6, 1, 2, 1, 1, 9, 8, 8, 5, 3, 2, 5, 4, 3, 9, 9, 8, 7, 7, 7, 9, 7, 5, 6, 4, 2, 1, 1, 1, 4, 4, 4, 3, 2, 1, 6, 3, 3, 7, 6, 5, 8, 8, 7, 10, 6, 5, 8, 7, 6, 7, 7, 7, 6, 6, 6, 7, 6, 5, 5, 5, 4, 5, 5, 5, 8, 6, 6, 7, 6, 2, 3, 2, 1, 6, 4, 3, 7, 6, 6, 2, 2, 2, 8, 5, 4, 8, 7, 6, 6, 5, 3, 9, 9, 8, 7, 5, 5, 9, 6, 3, 9, 9, 8, 4, 3, 3, 9, 5, 4, 4, 3, 1, 7, 6, 3, 7, 7, 7, 8, 7, 6, 4, 2, 2, 8, 8, 7, 7, 5, 3, 9, 7, 7, 6, 5, 3, 7, 7, 6, 5, 5, 5, 8, 6, 6, 2, 2, 1, 5, 4, 4, 3, 3, 2, 5, 5, 4, 6, 4, 2, 2, 1, 1, 6, 4, 4, 5, 4, 2, 6, 4, 4, 8, 6, 5, 3, 2, 2, 7, 6, 5, 9, 8, 7, 10, 4, 4, 2, 2, 2, 8, 8, 7, 5, 5, 3, 6, 6, 5, 8, 4, 2, 7, 6, 4, 7, 5, 3, 8, 5, 5, 1, 1, 1, 7, 7, 5, 8, 7, 7, 5, 5, 5, 2, 2, 2
 |8, 6, 4, 5, 5, 2, 6, 6, 3, 7, 7, 6, 6, 5, 5, 2, 1, 1, 3, 2, 2, 9, 7, 6, 1, 1, 1, 4, 4, 4, 4, 4, 4, 7, 5, 5, 2, 1, 1, 9, 6, 5, 2, 1, 1, 5, 5, 5, 8, 3, 3, 4, 4, 4, 5, 4, 4, 9, 4, 4, 6, 4, 2, 3, 1, 1, 7, 7, 7, 4, 3, 2, 2, 1, 1, 6, 6, 6, 10, 8, 6, 7, 4, 4, 10, 7, 6, 10, 8, 4, 9, 7, 7, 6, 6, 5, 8, 8, 7, 5, 5, 3, 7, 6, 4, 7, 4, 2, 5, 4, 3, 7, 7, 7, 7, 4, 2, 8, 5, 4, 5, 4, 2, 6, 5, 4, 7, 6, 1, 3, 3, 2, 10, 8, 8, 6, 5, 2, 3, 2, 2, 7, 6, 6, 6, 3, 3, 10, 8, 8, 5, 4, 3, 9, 5, 5, 10, 7, 6, 5, 5, 4, 6, 5, 5, 5, 3, 3, 2, 1, 1, 3, 3, 2, 2, 2, 1, 7, 7, 6, 4, 4, 4, 7, 5, 3, 6, 4, 4, 9, 9, 9, 9, 7, 4, 8, 7, 7, 7, 6, 5, 4, 3, 2, 7, 6, 5, 8, 5, 5, 5, 5, 3, 8, 3, 1, 3, 3, 1, 6, 3, 2, 9, 7, 7, 7, 6, 6, 9, 9, 7, 5, 5, 3, 4, 3, 2, 8, 8, 6, 6, 6, 3, 9, 8, 7, 9, 4, 3, 9, 9, 9, 7, 5, 2, 5, 4, 3, 8, 4, 2, 6, 5, 4, 5, 5, 4, 8, 7, 6, 1, 1, 1, 5, 3, 3, 10, 9, 8, 5, 4, 4, 9, 6, 6, 7, 6, 5, 9, 6, 5, 7, 7, 6, 7, 6, 6, 10, 7, 7|];